8 6 102
6 5 1 7 1 7 2 1 1 2 2 3 2 3 21 21 41 41 61 61 73 73 89 89 101 
5 8 1 8 2 4 1 7 3 4 2 4 22 22 40 40 68 68 90 90 102 
4 6 1 5 2 8 3 1 2 14 38 38 74 74 88 88 102 
4 2 1 3 1 6 2 6 3 15 35 35 51 51 87 87 99 
18 8 1 6 1 6 1 4 1 4 1 5 2 5 2 1 1 1 1 6 2 6 2 2 2 8 3 8 3 7 3 7 3 3 2 3 2 0 4 4 9 9 14 14 18 18 22 22 25 25 29 29 33 33 36 36 40 40 43 43 48 48 51 51 54 57 61 61 64 64 68 68 73 
9 5 1 2 1 2 1 7 1 7 1 3 1 3 1 1 2 1 2 0 3 3 9 9 15 15 18 18 21 21 27 27 33 68 73 73 77 
